p cnf 0 93
 -5_1  -2_1   -26_1   4_2  
 -5_1   -2_1   -1_1   4_2  
 -5_1   -26_1   -1_1   4_2  
 -2_1   -26_1   -1_1   4_2  
 -5_0   -2_0   -26_0   4_1  
 -5_0   -2_0   -1_0   4_1  
 -5_0   -26_0   -1_0   4_1  
 -2_0   -26_0   -1_0   4_1  
 -5_1   -4_1   -3_1   1_2  
 -5_1   -4_1   -2_1   1_2  
 -5_1   -3_1   -2_1   1_2  
 -5_1   -4_1   -1_1   1_2  
 -5_1   -3_1   -1_1   1_2  
 -4_1   -3_1   -1_1   1_2  
 -5_1   -2_1   -1_1   1_2  
 -4_1   -2_1   -1_1   1_2  
 -3_1   -2_1   -1_1   1_2  
 -5_0   -4_0   -3_0   1_1  
 -5_0   -4_0   -2_0   1_1  
 -5_0   -3_0   -2_0   1_1  
 -5_0   -4_0   -1_0   1_1  
 -5_0   -3_0   -1_0   1_1  
 -4_0   -3_0   -1_0   1_1  
 -5_0   -2_0   -1_0   1_1  
 -4_0   -2_0   -1_0   1_1  
 -3_0   -2_0   -1_0   1_1  
 -1_2   5_1   4_1   2_1  
 -1_1   5_0   4_0   2_0  
 -1_2   4_1   3_1   1_1  
 -5_2   4_1   26_1   1_1  
 -4_2   2_1   26_1   1_1  
 -1_1   4_0   3_0   1_0  
 -5_1   4_0   26_0   1_0  
 -4_1   2_0   26_0   1_0  
 -4_1   -3_1   5_2  
 -4_1   -2_1   5_2  
 -3_1   -26_1   5_2  
 -2_1   -26_1   5_2  
 -3_1   -1_1   5_2  
 -2_1   -1_1   5_2  
 -4_0   -3_0   5_1  
 -4_0   -2_0   5_1  
 -3_0   -26_0   5_1  
 -2_0   -26_0   5_1  
 -3_0   -1_0   5_1  
 -2_0   -1_0   5_1  
 -5_1   -26_1   4_2  
 -2_1   -26_1   4_2  
 -5_1   -1_1   4_2  
 -26_1   -1_1   4_2  
 -5_0   -26_0   4_1  
 -2_0   -26_0   4_1  
 -5_0   -1_0   4_1  
 -26_0   -1_0   4_1  
 -5_1   -4_1   3_2  
 -4_1   -2_1   3_2  
 -5_0   -4_0   3_1  
 -4_0   -2_0   3_1  
 -5_1   -4_1   2_2  
 -5_0   -4_0   2_1  
 -5_1   -4_1   1_2  
 -5_1   -3_1   1_2  
 -5_1   -1_1   1_2  
 -4_1   -1_1   1_2  
 -2_1   -1_1   1_2  
 -5_0   -4_0   1_1  
 -5_0   -3_0   1_1  
 -5_0   -1_0   1_1  
 -4_0   -1_0   1_1  
 -2_0   -1_0   1_1  
 -2_2   5_1   4_1  
 -2_1   5_0   4_0  
 -3_2   5_1   2_1  
 -5_2   3_1   2_1  
 -3_1   5_0   2_0  
 -5_1   3_0   2_0  
 -4_2   5_1   26_1  
 -4_1   5_0   26_0  
 -1_2   5_1   1_1  
 -4_2   26_1   1_1  
 -1_1   5_0   1_0  
 -4_1   26_0   1_0  
 -2_2   5_1  
 -2_1   5_0  
 -26_1   4_2  
 -3_2   4_1  
 -26_0   4_1  
 -3_1   4_0  
 -5_1   2_2  
 -5_0   2_1  
 -26_2  
 -26_1  
-26_0  
